171
109
107
106
105
165
104
114
84
52
53
46
39
38
156
155
40
45
43
55
56
65
90
162
123
122
101
100
102
103
163
99
91
154
89
88
153
70
69
54
58
57
62
86
92
94
96
97
98
95
93
166
108
83
20
21
29
22
23
24
159
16
37
75
11
10
76
19
161
147
137
136
129
128
135
6
7
14
15
25
150
160
151
141
125
130
131
113
115
116
117
118
119
120
121
124
138
139
13
17
32
158
36
49
170
73
74
12
18
2
3
4
5
133
169
0
1
77
35
157
33
34
44
47
48
51
59
60
61
66
63
64
42
41
31
30
28
27
26
8
9
81
72
68
67
167
87
85
71
50
168
78
82
79
80
112
164
127
126
146
145
144
143
142
152
149
148
140
134
132
111
110
109
